<?xml version = "1.0" standalone="yes"?>
<!-- This file has been generated by DOcplex version 2.23.222  -->
<CPLEXSolution version="1.0">
 <header
   problemName="CVRP"
   objectiveValue="4625.91"
  />
 <variables>
  <variable name="x_0_2" index="1" value="1.00000"/>
  <variable name="x_0_3" index="2" value="1.00000"/>
  <variable name="x_0_7" index="6" value="1.00000"/>
  <variable name="x_0_10" index="9" value="1.00000"/>
  <variable name="x_1_11" index="21" value="1.00000"/>
  <variable name="x_2_8" index="29" value="1.00000"/>
  <variable name="x_3_5" index="37" value="1.00000"/>
  <variable name="x_4_9" index="52" value="1.00000"/>
  <variable name="x_5_0" index="55" value="1.00000"/>
  <variable name="x_6_0" index="66" value="1.00000"/>
  <variable name="x_7_4" index="81" value="1.00000"/>
  <variable name="x_8_1" index="89" value="1.00000"/>
  <variable name="x_9_6" index="105" value="1.00000"/>
  <variable name="x_10_0" index="110" value="1.00000"/>
  <variable name="x_11_0" index="121" value="1.00000"/>
  <variable name="u_1" index="132" value="27.00000"/>
  <variable name="u_2" index="133" value="5.00000"/>
  <variable name="u_3" index="134" value="4.00000"/>
  <variable name="u_4" index="135" value="9.00000"/>
  <variable name="u_5" index="136" value="29.00000"/>
  <variable name="u_6" index="137" value="29.00000"/>
  <variable name="u_7" index="138" value="6.00000"/>
  <variable name="u_8" index="139" value="23.00000"/>
  <variable name="u_9" index="140" value="27.00000"/>
  <variable name="u_10" index="141" value="29.00000"/>
  <variable name="u_11" index="142" value="29.00000"/>
 </variables>
</CPLEXSolution>
